NAME: tsp30-32
TYPE: TSP
DIMENSION: 30
EDGE_WEIGHT_TYPE: EUC_2D
NODE_COORD_SECTION
0 41 21
1 26 44
2 87 13
3 75 81
4 73 77
5 40 92
6 34 0
7 71 89
8 58 3
9 77 98
10 76 86
11 59 35
12 58 57
13 90 61
14 12 16
15 59 12
16 46 33
17 91 3
18 65 85
19 66 76
20 54 23
21 62 95
22 37 58
23 43 14
24 2 20
25 58 41
26 89 95
27 4 43
28 81 94
29 92 17
EOF